sing20230905.12
TTAA  55111 48698
99006 29456 20005 00086 27056 13004 92779 22818 14014
85511 18621 16506 70152 10843 01502 50588 04362 04523
40761 13562 09033 30973 28132 07553 25102 38556 06054
20251 51935 04547 15430 67356 06562 10666 76757 06029
88112 77756 09560
77134 08080 43130=
TTCC  55115 48698
70875 72563 26525 50077 69964 33525
88764 73762 29025
77999=
TTDD  5511/ 48698
11938 79556 22931 79356 33916 72762 44881 68563 55764 73762
66665 71764 77614 66768 88474 70764 99444 68365
21212 11946 05041 22890 02006 33880 28006 44873 27010 55754
29523 66681 26023 77669 27016 88658 25510 99607 26021 11581
29025 22550 30019 33530 31533 44505 33029 55466 03523 66444
07037=
